Version identifier: 22.1.0.0 | 2022-03-09 | 1a383f8ce
CPXPARAM_Threads                                 1
CPXPARAM_MIP_Strategy_VariableSelect             3
CPXPARAM_TimeLimit                               599.99976778400003
1 of 1 MIP starts provided solutions.
MIP start 'm1' defined initial solution with objective 360.0000.
Tried aggregator 1 time.
MIP Presolve eliminated 376 rows and 1080 columns.
MIP Presolve modified 35 coefficients.
Reduced MIP has 2157 rows, 3600 columns, and 92384 nonzeros.
Reduced MIP has 3600 binaries, 0 generals, 0 SOSs, and 0 indicators.
Presolve time = 0.09 sec. (148.61 ticks)
Probing time = 0.01 sec. (13.47 ticks)
Tried aggregator 1 time.
Detecting symmetries...
MIP Presolve modified 9 coefficients.
Reduced MIP has 2157 rows, 3600 columns, and 92504 nonzeros.
Reduced MIP has 3600 binaries, 0 generals, 0 SOSs, and 0 indicators.
Presolve time = 0.09 sec. (136.76 ticks)
Probing time = 0.01 sec. (13.47 ticks)
Clique table members: 1435.
MIP emphasis: balance optimality and feasibility.
MIP search method: dynamic search.
Parallel mode: none, using 1 thread.
Root relaxation solution time = 0.02 sec. (11.76 ticks)

        Nodes                                         Cuts/
   Node  Left     Objective  IInf  Best Integer    Best Bound    ItCnt     Gap

*     0+    0                          360.0000    64980.0000              --- 
      0     0        cutoff            360.0000                     10     --- 

Root node processing (before b&c):
  Real time             =    0.30 sec. (385.43 ticks)
Sequential b&c:
  Real time             =    0.00 sec. (0.00 ticks)
                          ------------
Total (root+branch&cut) =    0.30 sec. (385.43 ticks)
Primal:	360
Dual:	360
Status:	Optimal
Time:	0.32
Sequence:
	9
	9
	4
	0
	10
	4
	11
	0
	9
	4
	0
	5
	9
	5
	4
	11
	4
	4
	2
	9
	4
	11
	9
	4
	4
	9
	1
	0
	4
	5
	9
	4
	11
	4
	4
	9
	9
	9
	9
	4
	0
	3
	4
	9
	5
	0
	9
	5
	4
	3
	0
	4
	9
	5
	9
	1
	4
	3
	0
	9
	4
	5
	9
	0
	4
	9
	5
	4
	0
	4
	4
	1
	4
	0
	4
	5
	9
	9
	9
	1
	4
	9
	4
	1
	0
	5
	4
	1
	0
	1
	9
	1
	0
	1
	9
	0
	1
	4
	4
	1
	9
	5
	9
	5
	9
	1
	4
	5
	9
	0
	4
	1
	9
	1
	4
	1
	0
	5
	4
	1
	9
	4
	4
	0
	5
	4
	9
	0
	1
	9
	9
	4
	0
	9
	5
	9
	1
	9
	0
	1
	4
	9
	1
	0
	4
	5
	0
	4
	5
	0
	5
	4
	0
	5
	4
	0
	4
	9
	0
	9
	5
	0
	5
	9
	0
	5
	9
	0
	4
	9
	0
	4
	5
	9
	4
	0
	4
	9
	5
	9
	5
	4
	9
	5
	4
	9
	0
	5
	4
	0
	4
	4
	9
	9
	5
	0
	5
	9
	4
	5
	0
	5
	4
	9
	9
	5
	9
	9
	4
	0
	5
	9
	0
	5
	9
	5
	9
	4
	5
	0
	5
	9
	4
	5
	0
	9
	4
	5
	9
	4
	0
	4
	9
	0
	9
	4
	5
	0
	9
	9
	5
	4
	9
	9
	0
	9
	4
	4
	0
	5
	9
	5
	9
	5
	0
	9
	5
	0
	9
	9
	9
	0
	5
	9
	0
	5
	9
	5
	9
	5
	0
	9
	9
	5
	0
	9
	5
	0
	9
	9
	0
	5
	9
	5
	9
	9
	0
	9
	5
	9
	9
	9
	9
	9
	5
	9
	0
	9
	9
	0
	9
	9
	0
	5
	9
	9
	0
	9
	9
	5
	0
	5
	9
	5
	9
	5
	9
	5
	9
	5
	9
	5
	9
	5
	9
	5
	9
	5
	9
	5
	9
	5
	9
	5
	9
	5
	9
	5
	9
	5
	9
	5
	9
	5
	9
	9
	9
	5
	9
	5
	9
	5
	9
	9
	5
	9
	9
	5
	9
	5
